1 3 100 680451.75
1 3 200 694249.56
1 3 300 692276.58
2 3 100 689247.40
2 3 200 713481.52
2 3 300 714795.52
3 3 100 694125.24
3 3 200 714523.89
3 3 300 711735.85
4 3 100 704460.57
4 3 200 704546.73
4 3 300 705279.44
5 3 100 691669.14
5 3 200 704481.82
5 3 300 701442.41
